14 -33 -34 0
16 32 -14 0
-33 -34 -35 0
-16 33 -34 0
16 32 0
d 13 16 32 0
16 -35 0
-34 -35 0
d -33 -34 -35 0
-16 -35 0
d -12 -16 -35 0
-35 0
12 -16 0
15 -16 34 0
-16 34 0
d 15 -16 34 0
16 34 0
d 16 11 34 0
34 0
-12 0
16 0
6 0
0
